20 75
1 3
1 4
1 5
1 6
1 10
1 11
1 19
2 6
2 7
2 8
2 17
2 19
2 20
3 5
3 6
3 8
3 12
3 13
3 18
3 19
3 20
4 6
4 7
4 8
4 11
4 13
4 14
4 15
4 16
4 17
4 20
5 8
5 10
5 11
5 12
5 16
5 20
6 7
6 10
6 14
6 17
6 19
7 19
7 20
8 13
8 14
8 15
8 19
9 13
9 16
9 17
10 12
11 12
11 13
11 14
11 16
11 17
11 18
11 20
12 14
12 15
12 16
12 17
12 19
12 20
13 14
13 16
13 18
14 18
14 20
15 18
16 19
17 20
18 19
18 20
